/* Objective function */
max: 15 x1 + 3 x2 - 5 x3 + 0 x4
     - x5 +  14 x6 - x7 - 4 x8 - 4 x9 + 3 x10
     - 3 x11 - 3 x12 + 13 x13 - 3 x14 - 3 x15 - 3 x16 + 17 x17 - 3 x18
     - 2 x19 - 2 x20 - 2 x21 - 2 x22 + 10 x23 + 12 x24 + 13 x25 + 38 x26 - 2 x27 - 2 x28
     - x29 - x30 - x31 - x32 - x33 - x34 + 9 x35 +  7 x36 - x37 - x38 - x39 - x40;

/* Variable bounds */

x5 + x6 + x7 >= 3 x1;
x6 + x7 + x8 >= 3 x2;
x7 + x8 + x9 >= 3 x3;
x8 + x9 + x10 >= 3 x4;
x11 + x12 + x13 >= 3 x5;
x12 + x13 + x14 >= 3 x6;
x13 + x14 + x15 >= 3 x7;
x14 + x15 + x16 >= 3 x8;
x15 + x16 + x17 >= 3 x9;
x16 + x17 + x18 >= 3 x10;
x19 + x20 + x21 >= 3 x11;
x20 + x21 + x22 >= 3 x12;
x21 + x22 + x23 >= 3 x13;
x22 + x23 + x24 >= 3 x14;
x23 + x24 + x25 >= 3 x15;
x24 + x25 + x26 >= 3 x16;
x25 + x26 + x27 >= 3 x17;
x26 + x27 + x28 >= 3 x18;
x29 + x30 + x31 >= 3 x19;
x30 + x31 + x32 >= 3 x20;
x31 + x32 + x33 >= 3 x21;
x32 + x33 + x34 >= 3 x22;
x33 + x34 + x35 >= 3 x23;
x34 + x35 + x36 >= 3 x24;
x35 + x36 + x37 >= 3 x25;
x36 + x37 + x38 >= 3 x26;
x37 + x38 + x39 >= 3 x27;
x38 + x39 + x40 >= 3 x28;

Bin x1, x2, x3, x4, x5, x6, x7, x8, x9, x10,
    x11, x12, x13, x14, x15, x16, x17, x18, x19, x20,
    x21, x22, x23, x24, x25, x26, x27, x28, x29, x30,
    x31, x32, x33, x34, x35, x36, x37, x38, x39, x40;
    